p cnf 13 21
-13 9 6 0
-13 -9 -4 0
13 -8 -6 0
13 4 1 0
12 11 10 0
12 11 -9 0
12 8 5 0
-12 -2 1 0
-11 8 4 0
-10 9 1 0
-9 7 -1 0
9 4 3 0
-9 4 -3 0
-8 -7 2 0
8 3 2 0
7 -5 3 0
-6 3 -2 0
-6 3 -1 0
-6 2 1 0
5 -3 1 0
4 3 1 0
